NAME 
ROWS
 N  OBJ
 L  R0      
 E  R1      
 E  R2      
 E  R3      
 E  R4      
 E  R5      
 E  R6      
 E  R7      
 E  R8      
 E  R9      
 E  R10     
 E  R11     
 E  R12     
 E  R13     
 E  R14     
 E  R15     
 E  R16     
 E  R17     
 E  R18     
 E  R19     
 E  R20     
 E  R21     
 E  R22     
 E  R23     
 E  R24     
 E  R25     
 E  R26     
 E  R27     
 E  R28     
 E  R29     
 E  R30     
COLUMNS
    MARKER    'MARKER'                 'INTORG'
    I0(3)     OBJ       171
    I0(3)     R0        82
    I0(3)     R1        17
    I0(3)     R30       1
    I1(3)     OBJ       36
    I1(3)     R0        -187
    I1(3)     R2        18
    I1(3)     R30       1
    I2(3)     OBJ       -166
    I2(3)     R0        -50
    I2(3)     R3        3
    I2(3)     R30       1
    I3(3)     OBJ       96
    I3(3)     R0        5
    I3(3)     R4        9
    I3(3)     R30       1
    I4(3)     OBJ       152
    I4(3)     R0        79
    I4(3)     R5        13
    I4(3)     R30       1
    I5(3)     OBJ       161
    I5(3)     R0        -41
    I5(3)     R6        3
    I5(3)     R30       1
    I6(2)     OBJ       169
    I6(2)     R0        12
    I6(2)     R30       1
    I7(3)     OBJ       11
    I7(3)     R0        54
    I7(3)     R8        13
    I7(3)     R30       1
    I8(3)     OBJ       153
    I8(3)     R0        52
    I8(3)     R9        16
    I8(3)     R30       1
    I9(3)     OBJ       150
    I9(3)     R0        88
    I9(3)     R10       5
    I9(3)     R30       1
    I10(3)    OBJ       -106
    I10(3)    R0        106
    I10(3)    R11       5
    I10(3)    R30       1
    I11(3)    OBJ       41
    I11(3)    R0        8
    I11(3)    R12       2
    I11(3)    R30       1
    I12(3)    OBJ       -45
    I12(3)    R0        50
    I12(3)    R13       12
    I12(3)    R30       1
    I13(2)    OBJ       -131
    I13(2)    R0        -134
    I13(2)    R30       1
    I14(3)    OBJ       -52
    I14(3)    R0        -96
    I14(3)    R15       13
    I14(3)    R30       1
    I15(3)    OBJ       -49
    I15(3)    R0        57
    I15(3)    R16       12
    I15(3)    R30       1
    I16(3)    OBJ       120
    I16(3)    R0        179
    I16(3)    R17       7
    I16(3)    R30       1
    I17(3)    OBJ       -36
    I17(3)    R0        -7
    I17(3)    R18       11
    I17(3)    R30       1
    I18(3)    OBJ       -70
    I18(3)    R0        -180
    I18(3)    R19       18
    I18(3)    R30       1
    I19(3)    OBJ       -185
    I19(3)    R0        174
    I19(3)    R20       5
    I19(3)    R30       1
    I20(3)    OBJ       -98
    I20(3)    R0        9
    I20(3)    R21       16
    I20(3)    R30       1
    I21(3)    OBJ       -33
    I21(3)    R0        -141
    I21(3)    R22       7
    I21(3)    R30       1
    I22(3)    OBJ       114
    I22(3)    R0        20
    I22(3)    R23       6
    I22(3)    R30       1
    I23(3)    OBJ       -189
    I23(3)    R0        190
    I23(3)    R24       2
    I23(3)    R30       1
    I24(3)    OBJ       -176
    I24(3)    R0        -116
    I24(3)    R25       13
    I24(3)    R30       1
    I25(3)    OBJ       -197
    I25(3)    R0        -13
    I25(3)    R26       5
    I25(3)    R30       1
    I26(3)    OBJ       179
    I26(3)    R0        -156
    I26(3)    R27       16
    I26(3)    R30       1
    MARKER    'MARKER'                 'INTEND'
    C27(28)   OBJ       4
    C27(28)   R0        1
    C27(28)   R1        14
    C27(28)   R2        3
    C27(28)   R3        14
    C27(28)   R4        7
    C27(28)   R5        11
    C27(28)   R6        13
    C27(28)   R7        13
    C27(28)   R8        8
    C27(28)   R9        -1
    C27(28)   R11       8
    C27(28)   R12       8
    C27(28)   R13       18
    C27(28)   R15       9
    C27(28)   R16       18
    C27(28)   R17       8
    C27(28)   R18       17
    C27(28)   R19       4
    C27(28)   R20       7
    C27(28)   R21       3
    C27(28)   R22       4
    C27(28)   R23       9
    C27(28)   R24       18
    C27(28)   R25       2
    C27(28)   R26       9
    C27(28)   R27       14
    C27(28)   R28       6
    C27(28)   R29       14
    C28(28)   OBJ       2
    C28(28)   R0        -10
    C28(28)   R1        2
    C28(28)   R2        13
    C28(28)   R3        4
    C28(28)   R4        2
    C28(28)   R5        3
    C28(28)   R6        12
    C28(28)   R7        19
    C28(28)   R8        19
    C28(28)   R9        3
    C28(28)   R10       2
    C28(28)   R11       9
    C28(28)   R12       10
    C28(28)   R13       16
    C28(28)   R15       19
    C28(28)   R16       4
    C28(28)   R17       4
    C28(28)   R18       13
    C28(28)   R19       16
    C28(28)   R20       2
    C28(28)   R21       15
    C28(28)   R22       11
    C28(28)   R23       14
    C28(28)   R24       9
    C28(28)   R25       9
    C28(28)   R26       6
    C28(28)   R27       5
    C28(28)   R29       3
    C29(28)   OBJ       4
    C29(28)   R0        4
    C29(28)   R1        3
    C29(28)   R2        15
    C29(28)   R3        18
    C29(28)   R4        13
    C29(28)   R5        10
    C29(28)   R6        16
    C29(28)   R7        5
    C29(28)   R8        10
    C29(28)   R9        1
    C29(28)   R10       17
    C29(28)   R11       17
    C29(28)   R12       6
    C29(28)   R14       -1
    C29(28)   R16       12
    C29(28)   R17       8
    C29(28)   R18       10
    C29(28)   R19       3
    C29(28)   R20       -1
    C29(28)   R21       18
    C29(28)   R22       5
    C29(28)   R23       18
    C29(28)   R24       14
    C29(28)   R25       18
    C29(28)   R26       15
    C29(28)   R27       9
    C29(28)   R28       9
    C29(28)   R29       9
    C30(1)    R1        1
    C31(1)    R2        1
    C32(1)    R3        1
    C33(1)    R4        1
    C34(1)    R5        1
    C35(1)    R6        1
    C36(1)    R7        1
    C37(1)    R8        1
    C38(1)    R9        1
    C39(1)    R10       1
    C40(1)    R11       1
    C41(1)    R12       1
    C42(1)    R13       1
    C43(1)    R14       1
    C44(1)    R15       1
    C45(1)    R16       1
    C46(1)    R17       1
    C47(1)    R18       1
    C48(1)    R19       1
    C49(1)    R20       1
    C50(1)    R21       1
    C51(1)    R22       1
    C52(1)    R23       1
    C53(1)    R24       1
    C54(1)    R25       1
    C55(1)    R26       1
    C56(1)    R27       1
    C57(1)    R28       1
    C58(1)    R29       1
    C59(1)    R30       1
RHS
    RHS1      R0        -14
    RHS1      R1        89
    RHS1      R2        92
    RHS1      R3        52
    RHS1      R4        57
    RHS1      R5        71
    RHS1      R6        62
    RHS1      R7        61
    RHS1      R8        96
    RHS1      R9        87
    RHS1      R10       78
    RHS1      R11       61
    RHS1      R12       76
    RHS1      R13       97
    RHS1      R14       62
    RHS1      R15       85
    RHS1      R16       98
    RHS1      R17       53
    RHS1      R18       57
    RHS1      R19       83
    RHS1      R20       97
    RHS1      R21       75
    RHS1      R22       92
    RHS1      R23       64
    RHS1      R24       79
    RHS1      R25       73
    RHS1      R26       95
    RHS1      R27       76
    RHS1      R28       64
    RHS1      R29       57
    RHS1      R30       9
BOUNDS
 UP BND1      I0(3)     1
 UP BND1      I1(3)     1
 UP BND1      I2(3)     1
 UP BND1      I3(3)     1
 UP BND1      I4(3)     1
 UP BND1      I5(3)     1
 UP BND1      I6(2)     1
 UP BND1      I7(3)     1
 UP BND1      I8(3)     1
 UP BND1      I9(3)     1
 UP BND1      I10(3)    1
 UP BND1      I11(3)    1
 UP BND1      I12(3)    1
 UP BND1      I13(2)    1
 UP BND1      I14(3)    1
 UP BND1      I15(3)    1
 UP BND1      I16(3)    1
 UP BND1      I17(3)    1
 UP BND1      I18(3)    1
 UP BND1      I19(3)    1
 UP BND1      I20(3)    1
 UP BND1      I21(3)    1
 UP BND1      I22(3)    1
 UP BND1      I23(3)    1
 UP BND1      I24(3)    1
 UP BND1      I25(3)    1
 UP BND1      I26(3)    1
ENDATA
